1954.24 0
0 22 14 24 23 5 100 7 13 27 21 0
0 65 83 85 81 82 50 49 37 34 42 43 45 59 26 10 1 2 9 6 8 16 0
0 93 89 95 98 94 88 91 96 0
0 52 51 80 76 79 78 77 69 71 0
0 68 29 44 32 17 99 0
0 64 66 87 84 86 4 3 15 0
0 62 38 48 47 36 31 0
0 12 11 97 90 92 0
0 19 61 55 57 56 63 35 0
0 72 70 74 75 73 18 20 0
0 53 54 46 58 67 30 28 41 39 40 33 60 25 0